#Testing animated texture with the new format.

1@texture = res/test_images/ProgressAni.png

4@aniTexCoordsS1 = 0, 	0,	0, 	0, 	0,	0, 	0,	0, 	0, 	0
4@aniTexCoordsT1 = 0, 	0.1,0.2,0.3,0.4,0.5,0.6,0.7,0.8,0.9

4@aniTexCoordsS2 = 1, 	1,	1, 	1, 	1,	1, 	1,	1, 	1, 	1
4@aniTexCoordsT2 = 0.1, 0.2,0.3,0.4,0.5,0.6,0.7,0.8,0.9,1

0@delays = 40, 40, 40, 40, 40, 40, 40, 40, 40, 40
0@frames = 0, 1, 2, 3, 4, 5, 6, 7, 8, 9